<number of tasks>
50

<cycle time>
1000

<order strength>
0.197


<task times>
1 61
2 61
3 91
4 203
5 22
6 146
7 154
8 175
9 137
10 35
11 232
12 251
13 104
14 221
15 307
16 123
17 20
18 87
19 93
20 93
21 135
22 78
23 48
24 47
25 158
26 108
27 113
28 50
29 241
30 133
31 162
32 260
33 69
34 297
35 270
36 150
37 185
38 288
39 234
40 64
41 226
42 196
43 171
44 205
45 201
46 152
47 81
48 101
49 74
50 100

<precedence relations>
1,4
1,8
2,7
3,5
3,6
3,9
3,45
4,15
5,10
5,13
5,42
6,11
7,12
7,16
7,17
7,48
8,14
8,16
8,17
9,43
9,44
10,18
11,19
12,20
13,21
14,22
15,23
16,50
17,24
17,45
18,26
19,25
20,27
21,28
22,29
23,30
23,31
23,32
24,37
24,46
25,33
26,35
27,34
28,37
29,36
30,38
31,38
33,39
34,42
35,40
36,41
38,43
38,44
38,45
39,46
40,47
41,48
42,46
42,50
45,46
45,49

<end>
